\* Problem: Unknown *\

Maximize
 obj: + xp_0_0 + xp_0_1 + xp_0_2 + xp_0_3 + xp_0_4 + xp_0_5 + xp_0_6
 + xp_0_7 + xp_0_8 + xp_1_0 + xp_1_1 + xp_1_2 + xp_2_0 + xp_2_1 + xp_2_2
 + xp_2_3 + xp_2_4 + xp_3_0 + xp_3_1 + xp_3_2 + xp_4_0 + xp_4_1 + xp_5_0
 + xp_5_1 + xp_5_2 + xp_6_0 + xp_6_1 + xp_6_2 + xp_6_3 + xp_7_0 + xp_7_1
 + xp_8_0 + xp_8_1 + xp_8_2 + xp_9_0 + xp_10_0 + xp_10_1 + xp_11_0
 + xp_11_1 + xp_11_2 + xp_11_3 + xp_12_0 + xp_13_0 + xp_13_1 + xp_14_0
 + xp_14_1 + xp_14_2 + xp_15_0 + xp_16_0 + xp_16_1 + xp_17_0 + xp_17_1
 + xp_17_2 + xp_17_3 + xp_17_4 + xp_17_5 + xp_17_6 + xp_17_7 + xp_18_0
 + xp_18_1 + xp_18_2 + xp_18_3 + xp_18_4 + xp_19_0 + xp_19_1 + xp_19_2
 + xp_19_3 + xp_19_4 + xp_19_5 + xp_19_6 + xp_20_0 + xp_20_1 + xp_20_2
 + xp_20_3 + xp_21_0 + xp_21_1 + xp_21_2 + xp_21_3 + xp_21_4 + xp_22_0
 + xp_22_1 + xp_22_2 + xp_22_3 + xp_22_4 + xp_22_5 + xp_22_6 + xp_23_0
 + xp_23_1 + xp_23_2 + xp_23_3 + xp_23_4 + xp_23_5

Subject To
 r_1: 0 xp_0_0 <= 25.6427184466019
 r_2: + xp_22_5 + xp_18_1 + xp_17_3 + xp_5_1 + xp_2_3
 <= 25.5507088331516
 r_3: + xp_23_4 + xp_21_4 + xp_18_3 + xp_8_1 + xp_6_3
 <= 26.1838588989845
 r_4: + xp_18_4 + xp_17_2 + xp_15_0 <= 26.3893805309735
 r_5: + xp_18_0 + xp_0_4 <= 25.2244560727072
 r_6: + xp_19_5 + xp_18_2 <= 25.8704453441296
 r_7: + xp_20_3 <= 25.6427184466019
 r_8: + xp_23_2 + xp_22_2 + xp_11_3 + xp_6_1 + xp_5_2 + xp_3_2 + xp_2_1
 <= 25.5507088331516
 r_9: + xp_23_3 + xp_11_1 + xp_6_2 + xp_3_1 <= 26.1838588989845
 r_10: + xp_17_5 + xp_3_0 <= 26.3893805309735
 r_11: + xp_18_2 + xp_11_2 + xp_0_7 <= 25.2244560727072
 r_12: + xp_11_0 <= 25.8704453441296
 r_13: 0 xp_0_0 <= 27.1553784860558
 r_14: + xp_21_1 + xp_14_0 + xp_0_8 + xp_0_1 <= 25.5507088331516
 r_15: + xp_21_0 + xp_19_3 <= 26.1838588989845
 r_16: + xp_22_1 + xp_21_3 + xp_19_6 + xp_14_2 + xp_0_5 + xp_0_3
 + xp_0_2 <= 26.2815479528884
 r_17: + xp_0_0 <= 25.2244560727072
 r_18: + xp_21_4 + xp_19_5 + xp_4_0 + xp_0_4 <= 25.6427184466019
 r_19: + xp_19_0 + xp_0_7 <= 25.6427184466019
 r_20: + xp_21_2 + xp_19_4 + xp_19_2 + xp_19_1 + xp_14_1 + xp_4_1
 + xp_0_6 <= 27.1553784860558
 r_21: + xp_20_1 <= 25.5507088331516
 r_22: + xp_21_1 + xp_7_1 <= 26.1838588989845
 r_23: + xp_22_5 + xp_22_3 + xp_22_2 + xp_17_4 <= 26.2815479528884
 r_24: + xp_23_2 + xp_17_6 + xp_17_3 + xp_6_1 + xp_3_2 + xp_0_8
 <= 25.8070099524016
 r_25: 0 xp_0_0 <= 27.1553784860558
 r_26: + xp_18_1 + xp_0_6 + xp_0_1 <= 25.2244560727072
 r_27: + xp_11_3 + xp_4_1 <= 25.5507088331516
 r_28: + xp_19_2 + xp_10_1 <= 25.5507088331516
 r_29: + xp_20_2 <= 26.1838588989845
 r_30: + xp_2_0 <= 26.1838588989845
 r_31: + xp_23_4 + xp_23_3 + xp_18_3 + xp_8_1 + xp_6_3 + xp_6_2 + xp_3_1
 + xp_2_4 <= 25.8070099524016
 r_32: + xp_2_2 <= 27.1553784860558
 r_33: + xp_11_1 + xp_2_3 <= 26.1838588989845
 r_34: + xp_19_4 + xp_19_3 + xp_2_1 <= 26.1838588989845
 r_35: 0 xp_0_0 <= 26.2815479528884
 r_36: + xp_14_2 + xp_9_0 <= 26.2815479528884
 r_37: + xp_21_3 + xp_13_1 + xp_8_2 + xp_0_3 <= 25.8070099524016
 r_38: + xp_23_5 + xp_1_1 <= 27.941473259334
 r_39: + xp_19_6 + xp_17_4 + xp_17_1 + xp_0_5 <= 26.3893805309735
 r_40: + xp_0_2 <= 25.2244560727072
 r_41: + xp_12_0 + xp_2_4 <= 25.8070099524016
 r_42: + xp_21_3 <= 25.8070099524016
 r_43: + xp_22_6 + xp_16_0 <= 25.8070099524016
 r_44: + xp_23_4 + xp_23_3 + xp_23_2 + xp_23_1 + xp_16_1 + xp_1_2
 <= 27.941473259334
 r_45: + xp_17_7 + xp_17_6 + xp_17_3 + xp_3_2 + xp_3_1
 <= 26.3893805309735
 r_46: + xp_18_3 + xp_0_8 + xp_0_3 <= 25.2244560727072
 r_47: + xp_22_4 + xp_16_1 + xp_13_1 <= 27.941473259334
 r_48: + xp_13_0 <= 27.941473259334
 r_49: 0 xp_0_0 <= 26.3893805309735
 r_50: 0 xp_0_0 <= 25.2244560727072
 r_51: + xp_8_2 + xp_1_1 <= 26.3893805309735
 r_52: + xp_8_0 + xp_1_2 <= 26.3893805309735
 r_53: + xp_1_0 <= 26.3893805309735
 r_54: + xp_18_4 + xp_0_5 <= 25.2244560727072
 r_55: + xp_8_1 <= 26.3893805309735
 r_56: + xp_19_6 <= 26.3893805309735
 r_57: + xp_22_1 <= 25.2244560727072
 r_58: + xp_22_3 + xp_17_6 + xp_17_4 + xp_5_0 <= 25.2244560727072
 r_59: + xp_23_5 + xp_22_0 + xp_17_1 <= 25.2244560727072
 r_60: + xp_23_1 + xp_22_6 + xp_17_7 + xp_6_0 <= 25.2244560727072
 r_61: + xp_23_0 + xp_22_4 <= 25.2244560727072
 r_62: + xp_17_0 <= 25.2244560727072
 r_63: + xp_23_4 + xp_22_5 + xp_17_3 + xp_17_2 + xp_11_2 + xp_6_3
 + xp_5_1 <= 25.2244560727072
 r_64: + xp_23_3 + xp_23_2 + xp_22_2 + xp_17_5 + xp_6_2 + xp_6_1
 + xp_5_2 <= 25.2244560727072
 r_65: + xp_20_1 + xp_19_2 + xp_14_1 + xp_10_1 + xp_7_1 + xp_4_1
 + xp_2_2 + xp_0_6 <= 27.1553784860558
 r_66: + xp_21_2 + xp_20_2 + xp_19_4 + xp_7_0 <= 27.1553784860558
 r_67: + xp_20_3 + xp_19_1 + xp_10_0 <= 27.1553784860558
 r_68: + xp_20_0 <= 27.1553784860558

Bounds
 0 <= xp_0_0 <= 28.2589359286202
 0 <= xp_0_1 <= 5.37625335194661
 0 <= xp_0_2 <= 13.3928580530252
 0 <= xp_0_3 <= 2.12372541079929
 0 <= xp_0_4 <= 0.650505588229465
 0 <= xp_0_5 <= 2.12372541079929
 0 <= xp_0_6 <= 5.5484619980575
 0 <= xp_0_7 <= 1.30101117645893
 0 <= xp_0_8 <= 4.89795640982804
 0 <= xp_1_0 <= 20.0829031609529
 0 <= xp_1_1 <= 14.9489668783785
 0 <= xp_1_2 <= 0.618619974911724
 0 <= xp_2_0 <= 24.521688899712
 0 <= xp_2_1 <= 1.74106407137983
 0 <= xp_2_2 <= 2.12372541079929
 0 <= xp_2_3 <= 5.025498863099
 0 <= xp_2_4 <= 1.74106407137983
 0 <= xp_3_0 <= 25.3061208597973
 0 <= xp_3_1 <= 4.45789502000549
 0 <= xp_3_2 <= 2.90178194720136
 0 <= xp_4_0 <= 24.4897820491402
 0 <= xp_4_1 <= 2.04081517076168
 0 <= xp_5_0 <= 16.3265213660935
 0 <= xp_5_1 <= 8.16326068304673
 0 <= xp_5_2 <= 2.04081517076168
 0 <= xp_6_0 <= 16.5306028831696
 0 <= xp_6_1 <= 1.83673365368551
 0 <= xp_6_2 <= 1.83673365368551
 0 <= xp_6_3 <= 3.67346730737103
 0 <= xp_7_0 <= 19.3622339326015
 0 <= xp_7_1 <= 3.5204061695639
 0 <= xp_8_0 <= 17.3979493307433
 0 <= xp_8_1 <= 1.5816317573403
 0 <= xp_8_2 <= 1.5816317573403
 0 <= xp_9_0 <= 19.0688667518045
 0 <= xp_10_0 <= 14.6683590398496
 0 <= xp_10_1 <= 4.40050771195488
 0 <= xp_11_0 <= 27.6084303403907
 0 <= xp_11_1 <= 14.719370924217
 0 <= xp_11_2 <= 5.43366189725133
 0 <= xp_11_3 <= 12.5956455134177
 0 <= xp_12_0 <= 17.9081531234338
 0 <= xp_13_0 <= 14.7321345139359
 0 <= xp_13_1 <= 2.67856991162471
 0 <= xp_14_0 <= 12.7550948172605
 0 <= xp_14_1 <= 2.5510189634521
 0 <= xp_14_2 <= 1.27550948172605
 0 <= xp_15_0 <= 16.4158070298143
 0 <= xp_16_0 <= 14.540808091677
 0 <= xp_16_1 <= 1.21173400763975
 0 <= xp_17_0 <= 28.3290868263897
 0 <= xp_17_1 <= 6.39029825599669
 0 <= xp_17_2 <= 2.84438189679827
 0 <= xp_17_3 <= 1.42219094839914
 0 <= xp_17_4 <= 1.42219094839914
 0 <= xp_17_5 <= 1.42219094839914
 0 <= xp_17_6 <= 2.84438189679827
 0 <= xp_17_7 <= 1.42219094839914
 0 <= xp_18_0 <= 21.6517883183776
 0 <= xp_18_1 <= 3.80738943177603
 0 <= xp_18_2 <= 13.5714208855652
 0 <= xp_18_3 <= 3.80738943177603
 0 <= xp_18_4 <= 1.26912981059201
 0 <= xp_19_0 <= 27.9464339818719
 0 <= xp_19_1 <= 4.92345810456091
 0 <= xp_19_2 <= 2.46172905228046
 0 <= xp_19_3 <= 4.58545446307974
 0 <= xp_19_4 <= 1.23086452614023
 0 <= xp_19_5 <= 1.23086452614023
 0 <= xp_19_6 <= 1.23086452614023
 0 <= xp_20_0 <= 27.8188830336993
 0 <= xp_20_1 <= 4.6683562082157
 0 <= xp_20_2 <= 3.50126715616178
 0 <= xp_20_3 <= 6.79208161901499
 0 <= xp_21_0 <= 25.4145455369203
 0 <= xp_21_1 <= 4.10713203625624
 0 <= xp_21_2 <= 3.08034902719218
 0 <= xp_21_3 <= 6.30101683972669
 0 <= xp_21_4 <= 2.05356601812812
 0 <= xp_22_0 <= 20.5867315299601
 0 <= xp_22_1 <= 2.12372541079929
 0 <= xp_22_2 <= 3.9221895325822
 0 <= xp_22_3 <= 6.04591494338148
 0 <= xp_22_4 <= 3.9221895325822
 0 <= xp_22_5 <= 1.79846412178291
 0 <= xp_22_6 <= 0.899232060891455
 0 <= xp_23_0 <= 24.8341823515587
 0 <= xp_23_1 <= 7.51911777614802
 0 <= xp_23_2 <= 0.899232060891455
 0 <= xp_23_3 <= 3.02295747169074
 0 <= xp_23_4 <= 2.12372541079929
 0 <= xp_23_5 <= 0.899232060891455

End
